
  12    4
  10   10   10   10

   0   0   0   0   0   1 2 
   8  10  10  10  10   2 5 3 
   1  10  10  10  10   2 9 4 
   3  10  10  10  10   3 11 8 6 
  10  10  10  10  10   3 11 8 6 
  10  10  10  10  10   1 7 
   6  10  10  10  10   1 10 
   8  10  10  10  10   1 10 
   7  10  10  10  10   1 10 
   9  10  10  10  10   1 12
   2  10  10  10  10   1 12
   0   0   0   0   0   0 
